NAME : tsp_89_sol.txt
COMMENT : OR-Tools Guided Local Search
TYPE : TOUR
DIMENSION : 50
COST : 5753
STATUS : ROUTING_SUCCESS
GAP : 0.00% (Reference Solution)
TOUR_SECTION
1
24
25
38
5
3
21
22
40
47
20
4
49
12
26
17
18
33
7
29
37
13
28
27
50
45
8
6
9
36
42
35
39
43
41
19
30
14
46
34
10
15
44
2
48
16
23
11
31
32
-1
